(declare-const term_to_project_onto Real)
(declare-const |tmp___0'| Int)
(declare-const y Int)
(declare-const |z'| Int)
(declare-const z Int)
(declare-const |y'| Int)
(declare-const term_to_project_onto0 Real)
(declare-const term_to_project_onto1 Real)
(declare-const havoc Int)
(declare-const tmp___0 Int)
(assert (and (<= (+ (- z) 1) 0) (<= (+ (- y) 1) 0) (= (+ y (- z)) 0)
               (<= (- havoc) 0)
               (or (<= (+ havoc 1) 0) (<= (+ (- havoc) 1) 0))
               (= (+ |tmp___0'| (- havoc)) 0) (= (+ |z'| (- z) -1) 0)
               (= (+ |y'| (- y) -1) 0)
               (= term_to_project_onto1 (+ |y'| (- y)))
               (= term_to_project_onto0 (+ |z'| (- z)))
               (= term_to_project_onto (+ |tmp___0'| (- tmp___0)))))
(check-sat)
